
Gurobi 7.5.2 (linux64) logging started Sat Jul  7 16:16:27 2018

Changed value of parameter LogFile to result/ilp/simNo_2-n_100-m_40-s_4-minVAF_0.05-cov_10000-k_1-fn_0.05-fp_0.0001-na_0.15.ILP.gurobiSolverLog
   Prev: gurobi.log  Default: 
Changed value of parameter TimeLimit to 86400.0
   Prev: 1e+100  Min: 0.0  Max: 1e+100  Default: 1e+100
Optimize a model with 639293 rows, 10765 columns and 1940420 nonzeros
Variable types: 0 continuous, 10765 integer (10765 binary)
Coefficient statistics:
  Matrix range     [1e-05, 4e+00]
  Objective range  [5e-02, 9e+00]
  Bounds range     [1e+00, 1e+00]
  RHS range        [2e-01, 2e+00]
Found heuristic solution: objective -21128.49017
Presolve removed 120717 rows and 926 columns (presolve time = 5s) ...
Presolve removed 121198 rows and 926 columns (presolve time = 13s) ...
Presolve removed 169298 rows and 1407 columns (presolve time = 16s) ...
Presolve removed 169298 rows and 1407 columns
Presolve time: 18.81s
Presolved: 469995 rows, 9358 columns, 1417744 nonzeros
Variable types: 0 continuous, 9358 integer (9358 binary)
Presolved: 9358 rows, 479353 columns, 1427102 nonzeros

Presolve removed 9358 rows and 479353 columns

Root simplex log...

Iteration    Objective       Primal Inf.    Dual Inf.      Time
       0    3.5926043e+00   0.000000e+00   1.019180e+05     23s
   15821   -2.2100977e+02   0.000000e+00   4.458614e+05     25s
   30209   -2.7606510e+02   0.000000e+00   1.929328e+05     31s
   33467   -2.7582088e+02   0.000000e+00   0.000000e+00     34s
   33467   -2.7582088e+02   0.000000e+00   0.000000e+00     34s

Root relaxation: objective -2.758209e+02, 33467 iterations, 14.08 seconds
Total elapsed time = 35.43s
Total elapsed time = 88.70s
Total elapsed time = 124.51s
Total elapsed time = 168.32s
Total elapsed time = 190.27s

    Nodes    |    Current Node    |     Objective Bounds      |     Work
 Expl Unexpl |  Obj  Depth IntInf | Incumbent    BestBd   Gap | It/Node Time

     0     0 -275.82088    0 2155 -21128.490 -275.82088  98.7%     -  204s
H    0     0                    -336.0553736 -275.82088  17.9%     -  209s
H    0     0                    -321.6205749 -275.82088  14.2%     -  210s
H    0     0                    -312.4554283 -275.82088  11.7%     -  214s
     0     0 -280.40346    0 2169 -312.45543 -280.40346  10.3%     -  382s
     0     0 -280.78534    0 2167 -312.45543 -280.78534  10.1%     -  406s
     0     0 -285.27244    0 2205 -312.45543 -285.27244  8.70%     - 1091s
     0     0 -285.27244    0 2196 -312.45543 -285.27244  8.70%     - 1104s
     0     0 -285.27244    0 2231 -312.45543 -285.27244  8.70%     - 1126s
H    0     0                    -309.4003795 -285.27244  7.80%     - 1134s
     0     0 -285.27244    0 2236 -309.40038 -285.27244  7.80%     - 1138s
     0     0 -288.32749    0 2059 -309.40038 -288.32749  6.81%     - 6016s
     0     0 -288.32749    0 2128 -309.40038 -288.32749  6.81%     - 6054s
     0     0 -288.45478    0 2262 -309.40038 -288.45478  6.77%     - 6154s
     0     0 -289.26831    0 2251 -309.40038 -289.26831  6.51%     - 6254s
     0     0 -289.26831    0 2221 -309.40038 -289.26831  6.51%     - 6264s
     0     0 -290.39601    0 2202 -309.40038 -290.39601  6.14%     - 6552s
     0     0 -291.15977    0 2223 -309.40038 -291.15977  5.90%     - 6796s
     0     0 -291.15977    0 2233 -309.40038 -291.15977  5.90%     - 6807s
     0     0 -291.15977    0 2240 -309.40038 -291.15977  5.90%     - 6834s
     0     0 -291.45679    0 1166 -309.40038 -291.45679  5.80%     - 7032s
     0     0 -291.45679    0 1183 -309.40038 -291.45679  5.80%     - 7044s
     0     0 -291.48268    0 2285 -309.40038 -291.48268  5.79%     - 7147s
     0     0 -291.48268    0 2273 -309.40038 -291.48268  5.79%     - 7162s
     0     0 -291.63714    0 2280 -309.40038 -291.63714  5.74%     - 7230s
     0     0 -291.79549    0 2275 -309.40038 -291.79549  5.69%     - 7529s
     0     0 -291.79549    0 2282 -309.40038 -291.79549  5.69%     - 7535s
     0     0 -292.95519    0 2253 -309.40038 -292.95519  5.32%     - 10214s
     0     0 -293.01583    0 2320 -309.40038 -293.01583  5.30%     - 10294s
     0     0 -293.01583    0 2329 -309.40038 -293.01583  5.30%     - 10299s
     0     0 -293.71194    0 2323 -309.40038 -293.71194  5.07%     - 12574s
     0     0 -293.72228    0 2339 -309.40038 -293.72228  5.07%     - 12594s
     0     0 -293.72382    0 2361 -309.40038 -293.72382  5.07%     - 12598s
     0     0 -294.33924    0 2313 -309.40038 -294.33924  4.87%     - 12674s
     0     0 -294.52093    0 2316 -309.40038 -294.52093  4.81%     - 12697s
     0     0 -294.52093    0 2317 -309.40038 -294.52093  4.81%     - 12700s
     0     0 -294.52093    0 2324 -309.40038 -294.52093  4.81%     - 12717s
     0     0 -294.52093    0 2329 -309.40038 -294.52093  4.81%     - 12732s
     0     0 -294.52093    0 2328 -309.40038 -294.52093  4.81%     - 12748s
     0     0 -294.52093    0 2325 -309.40038 -294.52093  4.81%     - 12766s
     0     0 -294.52093    0 2233 -309.40038 -294.52093  4.81%     - 14408s
     0     0 -294.52438    0 2180 -309.40038 -294.52438  4.81%     - 14421s
     0     0 -294.52438    0 2170 -309.40038 -294.52438  4.81%     - 14423s
     0     0 -294.52438    0 2178 -309.40038 -294.52438  4.81%     - 14873s
     0     0 -294.52438    0 2176 -309.40038 -294.52438  4.81%     - 15316s
     0     2 -294.54085    0 2060 -309.40038 -294.54085  4.80%     - 15664s
     1     3 -297.18018    1  590 -309.40038 -294.54085  4.80%  5100 15676s
     3     3     cutoff    2      -309.40038 -294.54085  4.80%  3935 15736s
     4     4 -300.23523    3  371 -309.40038 -294.54085  4.80%  3456 15747s
     5     5 -306.34533    3    3 -309.40038 -294.54085  4.80%  3837 15790s
*    7     5               4    -306.3453306 -294.54085  3.85%  2770 15794s

Cutting planes:
  Gomory: 1
  MIR: 17
  Zero half: 44

Explored 9 nodes (740603 simplex iterations) in 86400.23 seconds
Thread count was 1 (of 80 available processors)

Solution count 6: -306.345 -309.4 -312.455 ... -21128.5

Time limit reached
Best objective -3.063453306332e+02, best bound -2.945408477165e+02, gap 3.8533%
